NAME : zqloutput/eax-hard-simple-rescaleandround/50-56.tsp
TYPE : TSP
DIMENSION : 50
EDGE_WEIGHT_TYPE : EUC_2D
NODE_COORD_SECTION
1 342022 540519
2 644448 864099
3 408588 593043
4 383691 520639
5 956848 434461
6 846444 307796
7 913827 321121
8 54333 638416
9 969176 560242
10 63252 492236
11 880921 745168
12 875926 786319
13 360720 800713
14 580144 431132
15 55752 28776
16 609101 113868
17 856592 455860
18 769958 931130
19 690354 639064
20 805143 858546
21 572989 763148
22 3987 695975
23 767299 34594
24 725631 198191
25 832572 157326
26 230569 367539
27 661112 256922
28 683517 403292
29 186284 795070
30 324438 356876
31 704965 65289
32 713281 479641
33 638336 386959
34 941848 996108
35 829613 263747
36 236031 675657
37 530663 116093
38 302259 135085
39 599644 456542
40 154878 937471
41 983428 342805
42 876011 139971
43 620256 270774
44 554659 745816
45 354877 216474
46 577364 219715
47 570015 648025
48 348560 584383
49 801046 347893
50 514040 936448
EOF
